*SENSE:Minimize
NAME          MODEL
ROWS
 N  OBJ
 G  C0000000
 G  C0000001
 G  C0000002
 G  C0000003
 G  C0000004
 G  C0000005
 G  C0000006
 G  C0000007
 G  C0000008
 G  C0000009
 G  C0000010
 G  C0000011
 G  C0000012
 G  C0000013
 G  C0000014
COLUMNS
    X0000000  C0000000   1.425010000000e+03
    X0000000  OBJ        1.425010000000e+03
    X0000001  C0000001   1.200000000000e+02
    X0000001  OBJ        1.200000000000e+02
    X0000002  C0000002   1.134400000000e+02
    X0000002  OBJ        1.134400000000e+02
    X0000003  C0000003   1.050500000000e+02
    X0000003  OBJ        1.050500000000e+02
    X0000004  C0000004   1.193000000000e+02
    X0000004  OBJ        1.193000000000e+02
    X0000005  C0000005   9.329000000000e+01
    X0000005  OBJ        9.329000000000e+01
    X0000006  C0000006   1.396700000000e+02
    X0000006  OBJ        1.396700000000e+02
    X0000007  C0000007   8.736000000000e+01
    X0000007  OBJ        8.736000000000e+01
    X0000008  C0000008   1.058800000000e+02
    X0000008  OBJ        1.058800000000e+02
    X0000009  C0000009   1.527700000000e+02
    X0000009  OBJ        1.527700000000e+02
    X0000010  C0000010   1.730000000000e+02
    X0000010  OBJ        1.730000000000e+02
    X0000011  C0000011   2.549900000000e+02
    X0000011  OBJ        2.549900000000e+02
    X0000012  C0000012   1.115500000000e+02
    X0000012  OBJ        1.115500000000e+02
    X0000013  C0000013   1.050000000000e+02
    X0000013  OBJ        1.050000000000e+02
    X0000014  C0000014   1.505000000000e+02
    X0000014  OBJ        1.505000000000e+02
RHS
    RHS       C0000000   2.677898076383e-02
    RHS       C0000001   5.379730620925e-02
    RHS       C0000002   1.422401923217e-02
    RHS       C0000003   3.370149830427e-02
    RHS       C0000004   5.508235443214e-02
    RHS       C0000005   1.911771438629e-02
    RHS       C0000006   1.175205583538e-02
    RHS       C0000007   4.593544455449e-02
    RHS       C0000008   3.408722737082e-01
    RHS       C0000009   2.258521832909e-02
    RHS       C0000010   1.160538948837e-01
    RHS       C0000011   6.254550437608e-02
    RHS       C0000012   8.397666740216e-02
    RHS       C0000013   9.433700099788e-02
    RHS       C0000014   1.924006658507e-02
BOUNDS
ENDATA
